presolving:
(round 1, fast)       177 del vars, 177 del conss, 0 add conss, 34692 chg bounds, 0 chg sides, 0 chg coeffs, 0 upgd conss, 0 impls, 0 clqs
(round 2, fast)       177 del vars, 177 del conss, 0 add conss, 67795 chg bounds, 0 chg sides, 0 chg coeffs, 0 upgd conss, 0 impls, 0 clqs
   (0.4s) running MILP presolver
   (0.5s) MILP presolver (2 rounds): 0 aggregations, 0 fixings, 232 bound changes
   (0.8s) probing: 51/177 (28.8%) - 0 fixings, 0 aggregations, 0 implications, 0 bound changes
   (0.8s) probing aborted: 50/50 successive totally useless probings
   (0.8s) symmetry computation started: requiring (bin +, int -, cont +), (fixed: bin -, int +, cont -)
   (0.8s) no symmetry present
presolving (3 rounds: 3 fast, 1 medium, 1 exhaustive):
 177 deleted vars, 177 deleted constraints, 0 added constraints, 68027 tightened bounds, 0 added holes, 0 changed sides, 0 changed coefficients
 0 implications, 0 cliques
presolved problem has 34869 variables (177 bin, 0 int, 0 impl, 34692 cont) and 373 constraints
    373 constraints of type <linear>
Presolving Time: 0.73

 time | node  | left  |LP iter|LP it/n|mem/heur|mdpt |vars |cons |rows |cuts |sepa|confs|strbr|  dualbound   | primalbound  |  gap   | compl. 
p 1.1s|     1 |     0 |   241 |     - |   locks|   0 |  34k| 373 | 373 |   0 |  0 |   0 |   0 | 0.000000e+00 | 1.541687e+07 |    Inf | unknown
i 1.1s|     1 |     0 |   241 |     - |  oneopt|   0 |  34k| 373 | 373 |   0 |  0 |   0 |   0 | 0.000000e+00 | 1.161014e+07 |    Inf | unknown
  2.2s|     1 |     0 |  2147 |     - |   195M |   0 |  34k| 373 | 373 |   0 |  0 |   0 |   0 | 3.850187e+06 | 1.161014e+07 | 201.55%| unknown
r 2.2s|     1 |     0 |  2147 |     - |simplero|   0 |  34k| 373 | 373 |   0 |  0 |   0 |   0 | 3.850187e+06 | 5.221643e+06 |  35.62%| unknown
r 2.3s|     1 |     0 |  2147 |     - |shifting|   0 |  34k| 373 | 373 |   0 |  0 |   0 |   0 | 3.850187e+06 | 5.108473e+06 |  32.68%| unknown
  2.4s|     1 |     0 |  2291 |     - |   202M |   0 |  34k| 373 | 390 |  17 |  1 |   0 |   0 | 3.914861e+06 | 5.108473e+06 |  30.49%| unknown
r 2.4s|     1 |     0 |  2291 |     - |simplero|   0 |  34k| 373 | 390 |  17 |  1 |   0 |   0 | 3.914861e+06 | 4.827588e+06 |  23.31%| unknown
  2.6s|     1 |     0 |  2368 |     - |   205M |   0 |  34k| 373 | 398 |  25 |  2 |   0 |   0 | 3.928229e+06 | 4.827588e+06 |  22.89%| unknown
r 2.6s|     1 |     0 |  2368 |     - |simplero|   0 |  34k| 373 | 398 |  25 |  2 |   0 |   0 | 3.928229e+06 | 4.727600e+06 |  20.35%| unknown
r 2.6s|     1 |     0 |  2368 |     - |rounding|   0 |  34k| 373 | 398 |  25 |  2 |   0 |   0 | 3.928229e+06 | 4.727600e+06 |  20.35%| unknown
r 2.7s|     1 |     0 |  2368 |     - |shifting|   0 |  34k| 373 | 398 |  25 |  2 |   0 |   0 | 3.928229e+06 | 4.629498e+06 |  17.85%| unknown
  2.8s|     1 |     0 |  2473 |     - |   207M |   0 |  34k| 373 | 416 |  43 |  3 |   0 |   0 | 3.960430e+06 | 4.629498e+06 |  16.89%| unknown
r 2.9s|     1 |     0 |  2473 |     - |shifting|   0 |  34k| 373 | 416 |  43 |  3 |   0 |   0 | 3.960430e+06 | 4.550347e+06 |  14.90%| unknown
  3.2s|     1 |     0 |  2556 |     - |   208M |   0 |  34k| 373 | 430 |  57 |  4 |   0 |   0 | 3.965113e+06 | 4.550347e+06 |  14.76%| unknown
r 3.2s|     1 |     0 |  2556 |     - |shifting|   0 |  34k| 373 | 430 |  57 |  4 |   0 |   0 | 3.965113e+06 | 4.487913e+06 |  13.18%| unknown
 time | node  | left  |LP iter|LP it/n|mem/heur|mdpt |vars |cons |rows |cuts |sepa|confs|strbr|  dualbound   | primalbound  |  gap   | compl. 
  3.4s|     1 |     0 |  2592 |     - |   212M |   0 |  34k| 373 | 437 |  64 |  5 |   0 |   0 | 3.966275e+06 | 4.487913e+06 |  13.15%| unknown
  3.8s|     1 |     0 |  2647 |     - |   213M |   0 |  34k| 373 | 444 |  71 |  6 |   0 |   0 | 3.968975e+06 | 4.487913e+06 |  13.07%| unknown
r 3.9s|     1 |     0 |  2647 |     - |shifting|   0 |  34k| 373 | 444 |  71 |  6 |   0 |   0 | 3.968975e+06 | 4.428889e+06 |  11.59%| unknown
  4.2s|     1 |     0 |  2716 |     - |   214M |   0 |  34k| 373 | 449 |  76 |  7 |   0 |   0 | 3.970574e+06 | 4.428889e+06 |  11.54%| unknown
  4.5s|     1 |     0 |  2756 |     - |   216M |   0 |  34k| 373 | 456 |  83 |  8 |   0 |   0 | 3.971456e+06 | 4.428889e+06 |  11.52%| unknown
  4.9s|     1 |     0 |  2785 |     - |   218M |   0 |  34k| 373 | 460 |  87 |  9 |   0 |   0 | 3.972072e+06 | 4.428889e+06 |  11.50%| unknown
  5.2s|     1 |     0 |  2838 |     - |   219M |   0 |  34k| 373 | 469 |  96 | 10 |   0 |   0 | 3.972946e+06 | 4.428889e+06 |  11.48%| unknown
  5.6s|     1 |     0 |  2890 |     - |   221M |   0 |  34k| 373 | 478 | 105 | 11 |   0 |   0 | 3.973769e+06 | 4.428889e+06 |  11.45%| unknown
  6.0s|     1 |     0 |  2928 |     - |   222M |   0 |  34k| 373 | 484 | 111 | 12 |   0 |   0 | 3.974234e+06 | 4.428889e+06 |  11.44%| unknown
  6.3s|     1 |     0 |  2960 |     - |   224M |   0 |  34k| 373 | 489 | 116 | 13 |   0 |   0 | 3.974866e+06 | 4.428889e+06 |  11.42%| unknown
  6.7s|     1 |     0 |  2989 |     - |   225M |   0 |  34k| 373 | 493 | 120 | 14 |   0 |   0 | 3.975071e+06 | 4.428889e+06 |  11.42%| unknown
  7.2s|     1 |     0 |  3018 |     - |   227M |   0 |  34k| 373 | 497 | 124 | 15 |   0 |   0 | 3.975186e+06 | 4.428889e+06 |  11.41%| unknown
  7.9s|     1 |     0 |  3127 |     - |   228M |   0 |  34k| 373 | 498 | 131 | 16 |   0 |   0 | 3.977558e+06 | 4.428889e+06 |  11.35%| unknown
  8.3s|     1 |     0 |  3148 |     - |   229M |   0 |  34k| 373 | 505 | 138 | 17 |   0 |   0 | 3.977803e+06 | 4.428889e+06 |  11.34%| unknown
  9.0s|     1 |     0 |  3175 |     - |   231M |   0 |  34k| 373 | 509 | 142 | 18 |   0 |   0 | 3.977900e+06 | 4.428889e+06 |  11.34%| unknown
 time | node  | left  |LP iter|LP it/n|mem/heur|mdpt |vars |cons |rows |cuts |sepa|confs|strbr|  dualbound   | primalbound  |  gap   | compl. 
  9.6s|     1 |     0 |  3268 |     - |   232M |   0 |  34k| 373 | 512 | 145 | 19 |   0 |   0 | 3.978213e+06 | 4.428889e+06 |  11.33%| unknown
 10.2s|     1 |     0 |  3305 |     - |   237M |   0 |  34k| 373 | 516 | 149 | 20 |   0 |   0 | 3.978377e+06 | 4.428889e+06 |  11.32%| unknown
 10.8s|     1 |     0 |  3330 |     - |   237M |   0 |  34k| 373 | 520 | 153 | 21 |   0 |   0 | 3.978425e+06 | 4.428889e+06 |  11.32%| unknown
 11.4s|     1 |     0 |  3380 |     - |   237M |   0 |  34k| 373 | 515 | 158 | 22 |   0 |   0 | 3.978761e+06 | 4.428889e+06 |  11.31%| unknown
r11.5s|     1 |     0 |  3380 |     - |shifting|   0 |  34k| 373 | 515 | 158 | 22 |   0 |   0 | 3.978761e+06 | 4.369358e+06 |   9.82%| unknown
 12.1s|     1 |     0 |  3410 |     - |   239M |   0 |  34k| 373 | 521 | 164 | 23 |   0 |   0 | 3.978896e+06 | 4.369358e+06 |   9.81%| unknown
 12.8s|     1 |     0 |  3467 |     - |   239M |   0 |  34k| 373 | 528 | 171 | 24 |   0 |   0 | 3.979307e+06 | 4.369358e+06 |   9.80%| unknown
 13.7s|     1 |     0 |  3489 |     - |   240M |   0 |  34k| 373 | 531 | 174 | 25 |   0 |   0 | 3.979374e+06 | 4.369358e+06 |   9.80%| unknown
 14.4s|     1 |     0 |  3503 |     - |   240M |   0 |  34k| 373 | 535 | 178 | 26 |   0 |   0 | 3.979402e+06 | 4.369358e+06 |   9.80%| unknown
 15.2s|     1 |     0 |  3514 |     - |   241M |   0 |  34k| 373 | 537 | 180 | 27 |   0 |   0 | 3.979427e+06 | 4.369358e+06 |   9.80%| unknown
 15.9s|     1 |     0 |  3535 |     - |   244M |   0 |  34k| 373 | 525 | 185 | 28 |   0 |   0 | 3.979519e+06 | 4.369358e+06 |   9.80%| unknown
 16.6s|     1 |     0 |  3555 |     - |   245M |   0 |  34k| 373 | 530 | 190 | 29 |   0 |   0 | 3.979582e+06 | 4.369358e+06 |   9.79%| unknown
 17.5s|     1 |     0 |  3582 |     - |   245M |   0 |  34k| 373 | 537 | 197 | 30 |   0 |   0 | 3.979634e+06 | 4.369358e+06 |   9.79%| unknown
 18.3s|     1 |     0 |  3605 |     - |   245M |   0 |  34k| 373 | 539 | 199 | 31 |   0 |   0 | 3.979676e+06 | 4.369358e+06 |   9.79%| unknown
 19.1s|     1 |     0 |  3631 |     - |   247M |   0 |  34k| 373 | 543 | 203 | 32 |   0 |   0 | 3.979714e+06 | 4.369358e+06 |   9.79%| unknown
 time | node  | left  |LP iter|LP it/n|mem/heur|mdpt |vars |cons |rows |cuts |sepa|confs|strbr|  dualbound   | primalbound  |  gap   | compl. 
 20.0s|     1 |     0 |  3655 |     - |   248M |   0 |  34k| 373 | 552 | 212 | 33 |   0 |   0 | 3.979897e+06 | 4.369358e+06 |   9.79%| unknown
 20.9s|     1 |     0 |  3679 |     - |   252M |   0 |  34k| 373 | 537 | 217 | 34 |   0 |   0 | 3.979994e+06 | 4.369358e+06 |   9.78%| unknown
r22.4s|     1 |     0 |  4930 |     - |intshift|   0 |  34k| 373 | 537 | 217 | 34 |   0 |   0 | 3.979994e+06 | 4.173169e+06 |   4.85%| unknown
d23.6s|     1 |     0 |  5419 |     - |farkasdi|   0 |  34k| 373 | 537 |   0 | 34 |   0 |   0 | 3.979994e+06 | 4.124658e+06 |   3.63%| unknown
d23.8s|     1 |     0 |  5560 |     - |farkasdi|   0 |  34k| 373 | 537 |   0 | 34 |   0 |   0 | 3.979994e+06 | 4.104956e+06 |   3.14%| unknown
d24.0s|     1 |     0 |  5640 |     - |farkasdi|   0 |  34k| 373 | 537 |   0 | 34 |   0 |   0 | 3.979994e+06 | 4.086635e+06 |   2.68%| unknown
d24.7s|     1 |     0 |  5926 |     - |farkasdi|   0 |  34k| 373 | 537 |   0 | 34 |   0 |   0 | 3.979994e+06 | 4.066962e+06 |   2.19%| unknown
L30.7s|     1 |     0 |  6077 |     - |    rens|   0 |  34k| 373 | 537 | 217 | 34 |   0 |   0 | 3.979994e+06 | 3.983328e+06 |   0.08%| unknown
 31.3s|     1 |     0 |  6077 |     - |   281M |   0 |  34k| 373 | 537 | 217 | 34 |   0 |   0 | 3.979994e+06 | 3.983328e+06 |   0.08%| unknown
 31.3s|     1 |     0 |  6077 |     - |   287M |   0 |  34k| 373 | 537 | 217 | 34 |   0 |   0 | 3.979994e+06 | 3.983328e+06 |   0.08%| unknown
 32.0s|     1 |     0 |  6094 |     - |   287M |   0 |  34k| 373 | 541 | 221 | 35 |   0 |   0 | 3.980008e+06 | 3.983328e+06 |   0.08%| unknown
 32.1s|     1 |     0 |  6094 |     - |   287M |   0 |  34k| 373 | 541 | 221 | 35 |   0 |   0 | 3.980008e+06 | 3.983328e+06 |   0.08%| unknown
 32.2s|     1 |     0 |  6152 |     - |   287M |   0 |  34k| 373 | 546 | 226 | 36 |   0 |   0 | 3.980113e+06 | 3.983328e+06 |   0.08%| unknown
 32.2s|     1 |     0 |  6152 |     - |   287M |   0 |  34k| 281 | 546 | 226 | 36 |   0 |   0 | 3.980113e+06 | 3.983328e+06 |   0.08%| unknown
 32.9s|     1 |     0 |  6192 |     - |   287M |   0 |  34k| 281 | 555 | 235 | 37 |   0 |   0 | 3.980162e+06 | 3.983328e+06 |   0.08%| unknown
 time | node  | left  |LP iter|LP it/n|mem/heur|mdpt |vars |cons |rows |cuts |sepa|confs|strbr|  dualbound   | primalbound  |  gap   | compl. 
 32.9s|     1 |     0 |  6207 |     - |   288M |   0 |  34k| 281 | 559 | 239 | 38 |   0 |   0 | 3.980200e+06 | 3.983328e+06 |   0.08%| unknown
 33.0s|     1 |     0 |  6207 |     - |   288M |   0 |  34k| 281 | 559 | 239 | 38 |   0 |   0 | 3.980200e+06 | 3.983328e+06 |   0.08%| unknown
(run 1, node 1) restarting after 123 global fixings of integer variables

(restart) converted 186 cuts from the global cut pool into linear constraints

presolving:
(round 1, fast)       18155 del vars, 3 del conss, 0 add conss, 0 chg bounds, 0 chg sides, 0 chg coeffs, 0 upgd conss, 0 impls, 0 clqs
   (34.1s) running MILP presolver
   (34.1s) MILP presolver found nothing
(round 2, exhaustive) 18155 del vars, 3 del conss, 0 add conss, 0 chg bounds, 0 chg sides, 0 chg coeffs, 42 upgd conss, 0 impls, 0 clqs
presolving (3 rounds: 3 fast, 2 medium, 2 exhaustive):
 18155 deleted vars, 3 deleted constraints, 0 added constraints, 0 tightened bounds, 0 added holes, 0 changed sides, 0 changed coefficients
 42 implications, 0 cliques
presolved problem has 16714 variables (54 bin, 0 int, 0 impl, 16660 cont) and 464 constraints
     42 constraints of type <varbound>
    422 constraints of type <linear>
Presolving Time: 1.91
transformed 33/100 original solutions to the transformed problem space

 time | node  | left  |LP iter|LP it/n|mem/heur|mdpt |vars |cons |rows |cuts |sepa|confs|strbr|  dualbound   | primalbound  |  gap   | compl. 
 35.5s|     1 |     0 |  8544 |     - |   346M |   0 |  16k| 464 | 464 |   0 |  0 |   0 |   0 | 3.980200e+06 | 3.983328e+06 |   0.08%| unknown
 35.6s|     1 |     0 |  8544 |     - |   346M |   0 |  16k| 464 | 464 |   0 |  0 |   0 |   0 | 3.980200e+06 | 3.983328e+06 |   0.08%| unknown
 36.1s|     1 |     0 |  8563 |     - |   347M |   0 |  16k| 464 | 468 |   4 |  1 |   0 |   0 | 3.980221e+06 | 3.983328e+06 |   0.08%| unknown
 36.7s|     1 |     0 |  8571 |     - |   347M |   0 |  16k| 464 | 469 |   5 |  2 |   0 |   0 | 3.980232e+06 | 3.983328e+06 |   0.08%| unknown
 36.7s|     1 |     0 |  8571 |     - |   347M |   0 |  16k| 464 | 469 |   5 |  2 |   0 |   0 | 3.980232e+06 | 3.983328e+06 |   0.08%| unknown
 37.3s|     1 |     0 |  8621 |     - |   347M |   0 |  16k| 464 | 471 |   7 |  3 |   0 |   0 | 3.980291e+06 | 3.983328e+06 |   0.08%| unknown
 37.9s|     1 |     0 |  8649 |     - |   347M |   0 |  16k| 464 | 474 |  10 |  4 |   0 |   0 | 3.980332e+06 | 3.983328e+06 |   0.08%| unknown
 38.5s|     1 |     0 |  8660 |     - |   347M |   0 |  16k| 464 | 476 |  12 |  5 |   0 |   0 | 3.980339e+06 | 3.983328e+06 |   0.08%| unknown
 39.2s|     1 |     0 |  8673 |     - |   348M |   0 |  16k| 464 | 477 |  13 |  6 |   0 |   0 | 3.980350e+06 | 3.983328e+06 |   0.07%| unknown
 39.8s|     1 |     0 |  8680 |     - |   348M |   0 |  16k| 464 | 478 |  14 |  7 |   0 |   0 | 3.980350e+06 | 3.983328e+06 |   0.07%| unknown
 40.4s|     1 |     0 |  8683 |     - |   348M |   0 |  16k| 464 | 479 |  15 |  8 |   0 |   0 | 3.980354e+06 | 3.983328e+06 |   0.07%| unknown
 41.0s|     1 |     0 |  8707 |     - |   348M |   0 |  16k| 464 | 485 |  21 |  9 |   0 |   0 | 3.980368e+06 | 3.983328e+06 |   0.07%| unknown
 41.7s|     1 |     0 |  8737 |     - |   348M |   0 |  16k| 464 | 489 |  25 | 10 |   0 |   0 | 3.980400e+06 | 3.983328e+06 |   0.07%| unknown
 42.4s|     1 |     0 |  8765 |     - |   348M |   0 |  16k| 464 | 492 |  28 | 11 |   0 |   0 | 3.980423e+06 | 3.983328e+06 |   0.07%| unknown
 43.1s|     1 |     0 |  8782 |     - |   348M |   0 |  16k| 464 | 445 |  30 | 12 |   0 |   0 | 3.980428e+06 | 3.983328e+06 |   0.07%| unknown
 time | node  | left  |LP iter|LP it/n|mem/heur|mdpt |vars |cons |rows |cuts |sepa|confs|strbr|  dualbound   | primalbound  |  gap   | compl. 
 43.2s|     1 |     0 |  8782 |     - |   348M |   0 |  16k| 447 | 445 |  30 | 12 |   0 |   0 | 3.980428e+06 | 3.983328e+06 |   0.07%| unknown
 43.7s|     1 |     0 |  8796 |     - |   348M |   0 |  16k| 447 | 449 |  34 | 13 |   0 |   0 | 3.980439e+06 | 3.983328e+06 |   0.07%| unknown
 44.3s|     1 |     0 |  8802 |     - |   348M |   0 |  16k| 447 | 454 |  39 | 14 |   0 |   0 | 3.980449e+06 | 3.983328e+06 |   0.07%| unknown
 44.7s|     1 |     0 |  8812 |     - |   348M |   0 |  16k| 447 | 457 |  42 | 15 |   0 |   0 | 3.980452e+06 | 3.983328e+06 |   0.07%| unknown
 45.2s|     1 |     0 |  8822 |     - |   348M |   0 |  16k| 447 | 460 |  45 | 16 |   0 |   0 | 3.980458e+06 | 3.983328e+06 |   0.07%| unknown
 45.8s|     1 |     0 |  8825 |     - |   348M |   0 |  16k| 447 | 463 |  48 | 17 |   0 |   0 | 3.980460e+06 | 3.983328e+06 |   0.07%| unknown
 46.4s|     1 |     0 |  8827 |     - |   348M |   0 |  16k| 447 | 453 |  49 | 18 |   0 |   0 | 3.980460e+06 | 3.983328e+06 |   0.07%| unknown
 46.9s|     1 |     0 |  8834 |     - |   348M |   0 |  16k| 447 | 458 |  54 | 19 |   0 |   0 | 3.980465e+06 | 3.983328e+06 |   0.07%| unknown
 47.5s|     1 |     0 |  8840 |     - |   349M |   0 |  16k| 447 | 459 |  55 | 20 |   0 |   0 | 3.980466e+06 | 3.983328e+06 |   0.07%| unknown
 47.8s|     1 |     0 |  8841 |     - |   349M |   0 |  16k| 447 | 460 |  56 | 21 |   0 |   0 | 3.980467e+06 | 3.983328e+06 |   0.07%| unknown
 48.3s|     1 |     0 |  8845 |     - |   349M |   0 |  16k| 447 | 462 |  58 | 22 |   0 |   0 | 3.980467e+06 | 3.983328e+06 |   0.07%| unknown
 48.8s|     1 |     0 |  8852 |     - |   349M |   0 |  16k| 447 | 464 |  60 | 23 |   0 |   0 | 3.980468e+06 | 3.983328e+06 |   0.07%| unknown
(run 2, node 1) restarting after 12 global fixings of integer variables

(restart) converted 56 cuts from the global cut pool into linear constraints

presolving:
(round 1, fast)       1977 del vars, 6 del conss, 0 add conss, 5 chg bounds, 0 chg sides, 1 chg coeffs, 0 upgd conss, 42 impls, 0 clqs
(round 2, exhaustive) 1977 del vars, 7 del conss, 0 add conss, 25 chg bounds, 0 chg sides, 1 chg coeffs, 0 upgd conss, 42 impls, 0 clqs
(round 3, exhaustive) 1977 del vars, 7 del conss, 0 add conss, 25 chg bounds, 0 chg sides, 1 chg coeffs, 1 upgd conss, 42 impls, 0 clqs
(round 4, medium)     1977 del vars, 8 del conss, 0 add conss, 25 chg bounds, 0 chg sides, 1 chg coeffs, 1 upgd conss, 42 impls, 0 clqs
presolving (5 rounds: 5 fast, 4 medium, 3 exhaustive):
 1977 deleted vars, 8 deleted constraints, 0 added constraints, 25 tightened bounds, 0 added holes, 0 changed sides, 1 changed coefficients
 42 implications, 0 cliques
presolved problem has 14737 variables (37 bin, 0 int, 0 impl, 14700 cont) and 495 constraints
     36 constraints of type <varbound>
    459 constraints of type <linear>
Presolving Time: 2.25
transformed 10/100 original solutions to the transformed problem space

 time | node  | left  |LP iter|LP it/n|mem/heur|mdpt |vars |cons |rows |cuts |sepa|confs|strbr|  dualbound   | primalbound  |  gap   | compl. 
 50.5s|     1 |     0 | 11385 |     - |   352M |   0 |  14k| 495 | 495 |   0 |  0 |  14k|   0 | 3.980512e+06 | 3.983328e+06 |   0.07%| unknown
 51.0s|     1 |     0 | 11400 |     - |   353M |   0 |  14k| 495 | 498 |   3 |  1 |  14k|   0 | 3.980518e+06 | 3.983328e+06 |   0.07%| unknown
 51.5s|     1 |     0 | 11406 |     - |   353M |   0 |  14k| 495 | 499 |   4 |  2 |  14k|   0 | 3.980518e+06 | 3.983328e+06 |   0.07%| unknown
 53.5s|     1 |     0 | 11794 |     - |   354M |   0 |  14k| 496 | 499 |   4 |  4 |  28k|  11 | 3.980920e+06 | 3.983328e+06 |   0.06%| unknown
(run 3, node 1) restarting after 4 global fixings of integer variables

(restart) converted 4 cuts from the global cut pool into linear constraints

presolving:
(round 1, fast)       201 del vars, 12 del conss, 0 add conss, 1 chg bounds, 0 chg sides, 0 chg coeffs, 0 upgd conss, 42 impls, 0 clqs
(round 2, exhaustive) 201 del vars, 14 del conss, 0 add conss, 12 chg bounds, 2 chg sides, 0 chg coeffs, 0 upgd conss, 42 impls, 0 clqs
presolving (3 rounds: 3 fast, 2 medium, 2 exhaustive):
 201 deleted vars, 14 deleted constraints, 0 added constraints, 12 tightened bounds, 0 added holes, 2 changed sides, 0 changed coefficients
 42 implications, 0 cliques
presolved problem has 14536 variables (32 bin, 0 int, 0 impl, 14504 cont) and 486 constraints
     33 constraints of type <varbound>
    453 constraints of type <linear>
Presolving Time: 2.51
transformed 10/100 original solutions to the transformed problem space

 time | node  | left  |LP iter|LP it/n|mem/heur|mdpt |vars |cons |rows |cuts |sepa|confs|strbr|  dualbound   | primalbound  |  gap   | compl. 
 54.5s|     1 |     0 | 13712 |     - |   357M |   0 |  14k| 486 | 486 |   0 |  0 |  28k|  11 | 3.980920e+06 | 3.983328e+06 |   0.06%| unknown
 54.5s|     1 |     0 | 13712 |     - |   357M |   0 |  14k| 486 | 486 |   0 |  0 |  28k|  11 | 3.980920e+06 | 3.983328e+06 |   0.06%| unknown
 55.1s|     1 |     0 | 13712 |     - |   358M |   0 |  14k| 486 | 486 |   0 |  1 |  28k|  11 | 3.980920e+06 | 3.983328e+06 |   0.06%| unknown
 55.6s|     1 |     0 | 13712 |     - |   358M |   0 |  14k| 484 | 486 |   0 |  3 |  28k|  11 | 3.980920e+06 | 3.983328e+06 |   0.06%| unknown
 57.6s|     1 |     0 | 14281 |     - |   359M |   0 |  14k| 480 | 486 |   0 |  5 |  28k|  18 | 3.981099e+06 | 3.983328e+06 |   0.06%| unknown
 58.2s|     1 |     0 | 14296 |     - |   359M |   0 |  14k| 480 | 487 |   1 |  6 |  28k|  18 | 3.981099e+06 | 3.983328e+06 |   0.06%| unknown
 58.4s|     1 |     2 | 14296 |     - |   359M |   0 |  14k| 480 | 487 |   1 |  7 |  28k|  20 | 3.981099e+06 | 3.983328e+06 |   0.06%| unknown

SCIP Status        : problem is solved [optimal solution found]
Solving Time (sec) : 64.01
Solving Nodes      : 51 (total of 54 nodes in 4 runs)
Primal Bound       : +3.98332825464182e+06 (265 solutions)
Dual Bound         : +3.98332825464182e+06
Gap                : 0.00 %
Solve Status: optimal
Solve Time: 64.03 seconds
